p cnf 15 24
15 -14 6 0
-15 -13 11 0
15 -13 -4 0
-15 10 9 0
15 10 5 0
15 -8 4 0
-15 4 3 0
-14 12 -2 0
14 11 1 0
14 -8 -3 0
-14 -8 2 0
13 -12 11 0
-13 -10 -7 0
-13 -8 2 0
12 11 1 0
12 10 7 0
12 10 3 0
11 10 8 0
11 -8 3 0
11 -3 -1 0
10 9 4 0
-10 5 3 0
-9 -8 6 0
9 2 1 0
